c turning on binary mode checking
c parsing input formula with 259840 variables and 1039934 clauses
c finished parsing, read 3044033 bytes from proof file
c detected empty clause; start verification via backward checking
c 5030 of 1039934 clauses in core                            
c 1646 of 118743 lemmas in core using 31691 resolution steps
c 0 RAT lemmas in core; 176 redundant literals in core lemmas
s VERIFIED
c verification time: 1.421 seconds
